// Strimko Set 068
n = 4;
// represent the different streams with integer 1..n
streams = 
  [
    [1,2,2,4],
    [2,1,4,2],
    [3,4,1,3],
    [4,3,3,1]
  ];

num_placed = 3;
placed = 
  [
    [2,2,3],
    [2,3,2],
    [3,3,1]
  ];
